p wcnf 113 56 57 
1 -45 85 0 
1 43 -9 0 
1 -27 -53 0 
1 -92 11 0 
1 -52 111 0 
1 50 113 0 
1 59 11 0 
1 -54 88 0 
1 88 60 0 
1 -32 -48 0 
1 47 -90 0 
1 -60 -7 0 
1 -58 92 0 
1 -6 65 0 
1 50 4 0 
1 102 -85 0 
1 70 -44 0 
1 -42 -108 0 
1 76 108 0 
1 35 -66 0 
1 52 -57 0 
1 -73 93 0 
1 12 -102 0 
1 79 11 0 
1 31 -21 0 
1 59 -27 0 
1 -59 -52 0 
1 -73 -68 0 
1 -103 110 0 
1 11 -40 0 
1 -59 104 0 
1 -43 69 0 
1 -25 26 0 
1 -17 -36 0 
1 -103 30 0 
1 -84 -101 0 
1 68 65 0 
1 -72 40 0 
1 15 39 0 
1 -9 -90 0 
1 -43 -95 0 
1 46 -22 0 
1 -91 45 0 
1 24 57 0 
1 19 -85 0 
1 37 27 0 
1 -100 -9 0 
1 49 89 0 
1 10 -30 0 
1 -64 96 0 
1 5 -15 0 
1 34 67 0 
1 28 -15 0 
1 48 66 0 
1 -59 96 0 
1 -27 -23 0 
